nK = 567;
nT = 4;
nI = 7;
L = 35;
TT = 123;
np = 1;
nc = 3;
b = [27, 68, 28, 68, 55, 48, 50];
d = [50, 128, 138, 129, 89, 110, 101];
m = [1.4, 1.9, 1.2, 2.4, 2, 1.3, 1.4];
pt = [0.32, 0.28, 0.29, 0.2];
st = [16.32, 12.6, 14.79, 9.6];
arc = {<1, 0, 1, 1, 0, 0, 0, [1, 1, 1, 1]>, <2, 1, 2, 1, 0, 0, 0, [1, 1, 1, 1]>, <3, 2, 3, 1, 0, 0, 0, [1, 1, 1, 1]>, <4, 3, 4, 1, 0, 0, 0, [1, 1, 1, 1]>, <5, 4, 5, 1, 0, 0, 0, [1, 1, 1, 1]>, <6, 5, 6, 1, 0, 0, 0, [1, 1, 1, 1]>, <7, 6, 7, 1, 0, 0, 0, [1, 1, 1, 1]>, <8, 7, 8, 1, 0, 0, 0, [1, 1, 1, 1]>, <9, 8, 9, 1, 0, 0, 0, [1, 1, 1, 1]>, <10, 9, 10, 1, 0, 0, 0, [1, 1, 1, 1]>, <11, 10, 11, 1, 0, 0, 0, [1, 1, 1, 1]>, <12, 11, 12, 1, 0, 0, 0, [1, 1, 1, 1]>, <13, 12, 13, 1, 0, 0, 0, [1, 1, 1, 1]>, <14, 13, 14, 1, 0, 0, 0, [1, 1, 1, 1]>, <15, 14, 15, 1, 0, 0, 0, [1, 1, 1, 1]>, <16, 15, 16, 1, 0, 0, 0, [1, 1, 1, 1]>, <17, 16, 17, 1, 0, 0, 0, [1, 1, 1, 1]>, <18, 17, 18, 1, 0, 0, 0, [1, 1, 1, 1]>, <19, 18, 19, 1, 0, 0, 0, [1, 1, 1, 1]>, <20, 19, 20, 1, 0, 0, 0, [1, 1, 1, 1]>, <21, 20, 21, 1, 0, 0, 0, [1, 1, 1, 1]>, <22, 21, 22, 1, 0, 0, 0, [1, 1, 1, 1]>, <23, 22, 23, 1, 0, 0, 0, [1, 1, 1, 1]>, <24, 23, 24, 1, 0, 0, 0, [1, 1, 1, 1]>, <25, 24, 25, 1, 0, 0, 0, [1, 1, 1, 1]>, <26, 25, 26, 1, 0, 0, 0, [1, 1, 1, 1]>, <27, 26, 27, 1, 0, 0, 0, [1, 1, 1, 1]>, <28, 27, 28, 1, 0, 0, 0, [1, 1, 1, 1]>, <29, 28, 29, 1, 0, 0, 0, [1, 1, 1, 1]>, <30, 29, 30, 1, 0, 0, 0, [1, 1, 1, 1]>, <31, 30, 31, 1, 0, 0, 0, [1, 1, 1, 1]>, <32, 31, 32, 1, 0, 0, 0, [1, 1, 1, 1]>, <33, 32, 33, 1, 0, 0, 0, [1, 1, 1, 1]>, <34, 33, 34, 1, 0, 0, 0, [1, 1, 1, 1]>, <35, 34, 35, 1, 0, 0, 0, [1, 1, 1, 1]>, <36, 5, 15, 10, 1, 0, 1, [1, 1, 0, 1]>, <37, 6, 16, 10, 1, 0, 1, [1, 1, 0, 1]>, <38, 14, 24, 10, 1, 0, 1, [1, 1, 0, 1]>, <39, 15, 25, 10, 1, 0, 1, [1, 1, 0, 1]>, <40, 21, 31, 10, 1, 0, 1, [1, 1, 0, 1]>, <41, 22, 32, 10, 1, 0, 1, [1, 1, 0, 1]>, <42, 23, 33, 10, 1, 0, 1, [1, 1, 0, 1]>, <43, 24, 34, 10, 1, 0, 1, [1, 1, 0, 1]>, <44, 5, 17, 12, 2, 0, 1, [1, 1, 1, 0]>, <45, 6, 18, 12, 2, 0, 1, [1, 1, 1, 0]>, <46, 14, 26, 12, 2, 0, 1, [1, 1, 1, 0]>, <47, 15, 27, 12, 2, 0, 1, [1, 1, 1, 0]>, <48, 19, 31, 12, 2, 0, 1, [1, 1, 1, 0]>, <49, 20, 32, 12, 2, 0, 1, [1, 1, 1, 0]>, <50, 21, 33, 12, 2, 0, 1, [1, 1, 1, 0]>, <51, 22, 34, 12, 2, 0, 1, [1, 1, 1, 0]>, <52, 23, 35, 12, 2, 0, 1, [1, 1, 1, 0]>, <53, 5, 17, 12, 3, 0, 0, [0, 1, 1, 1]>, <54, 6, 18, 12, 3, 0, 0, [0, 1, 1, 1]>, <55, 14, 26, 12, 3, 0, 0, [0, 1, 1, 1]>, <56, 15, 27, 12, 3, 0, 0, [0, 1, 1, 1]>, <57, 19, 31, 12, 3, 0, 0, [0, 1, 1, 1]>, <58, 20, 32, 12, 3, 0, 0, [0, 1, 1, 1]>, <59, 21, 33, 12, 3, 0, 0, [0, 1, 1, 1]>, <60, 22, 34, 12, 3, 0, 0, [0, 1, 1, 1]>, <61, 23, 35, 12, 3, 0, 0, [0, 1, 1, 1]>, <62, 4, 17, 13, 4, 0, 0, [1, 1, 0, 1]>, <63, 5, 18, 13, 4, 0, 0, [1, 1, 0, 1]>, <64, 6, 19, 13, 4, 0, 0, [1, 1, 0, 1]>, <65, 13, 26, 13, 4, 0, 0, [1, 1, 0, 1]>, <66, 14, 27, 13, 4, 0, 0, [1, 1, 0, 1]>, <67, 15, 28, 13, 4, 0, 0, [1, 1, 0, 1]>, <68, 18, 31, 13, 4, 0, 0, [1, 1, 0, 1]>, <69, 19, 32, 13, 4, 0, 0, [1, 1, 0, 1]>, <70, 20, 33, 13, 4, 0, 0, [1, 1, 0, 1]>, <71, 21, 34, 13, 4, 0, 0, [1, 1, 0, 1]>, <72, 22, 35, 13, 4, 0, 0, [1, 1, 0, 1]>, <73, 5, 17, 12, 5, 0, 0, [1, 1, 1, 0]>, <74, 6, 18, 12, 5, 0, 0, [1, 1, 1, 0]>, <75, 14, 26, 12, 5, 0, 0, [1, 1, 1, 0]>, <76, 15, 27, 12, 5, 0, 0, [1, 1, 1, 0]>, <77, 19, 31, 12, 5, 0, 0, [1, 1, 1, 0]>, <78, 20, 32, 12, 5, 0, 0, [1, 1, 1, 0]>, <79, 21, 33, 12, 5, 0, 0, [1, 1, 1, 0]>, <80, 22, 34, 12, 5, 0, 0, [1, 1, 1, 0]>, <81, 23, 35, 12, 5, 0, 0, [1, 1, 1, 0]>, <82, 5, 17, 12, 6, 0, 1, [1, 1, 0, 1]>, <83, 6, 18, 12, 6, 0, 1, [1, 1, 0, 1]>, <84, 14, 26, 12, 6, 0, 1, [1, 1, 0, 1]>, <85, 15, 27, 12, 6, 0, 1, [1, 1, 0, 1]>, <86, 19, 31, 12, 6, 0, 1, [1, 1, 0, 1]>, <87, 20, 32, 12, 6, 0, 1, [1, 1, 0, 1]>, <88, 21, 33, 12, 6, 0, 1, [1, 1, 0, 1]>, <89, 22, 34, 12, 6, 0, 1, [1, 1, 0, 1]>, <90, 23, 35, 12, 6, 0, 1, [1, 1, 0, 1]>, <91, 5, 16, 11, 7, 0, 0, [1, 1, 1, 0]>, <92, 6, 17, 11, 7, 0, 0, [1, 1, 1, 0]>, <93, 14, 25, 11, 7, 0, 0, [1, 1, 1, 0]>, <94, 15, 26, 11, 7, 0, 0, [1, 1, 1, 0]>, <95, 20, 31, 11, 7, 0, 0, [1, 1, 1, 0]>, <96, 21, 32, 11, 7, 0, 0, [1, 1, 1, 0]>, <97, 22, 33, 11, 7, 0, 0, [1, 1, 1, 0]>, <98, 23, 34, 11, 7, 0, 0, [1, 1, 1, 0]>, <99, 24, 35, 11, 7, 0, 0, [1, 1, 1, 0]>};
